c CNF generator v0.9
p cnf 50 50
9 34 -21 0
-39 -25 -1 0
13 35 11 0
-1 -37 -37 0
36 16 -42 0
46 -7 -26 0
-19 -12 28 0
-47 47 22 0
-36 -32 31 0
22 30 -33 0
-46 5 31 0
41 -7 -33 0
-38 -24 46 0
-31 27 40 0
1 -25 40 0
4 36 2 0
27 38 9 0
10 4 -30 0
20 -8 6 0
-22 -30 -17 0
-36 -8 4 0
47 26 -16 0
4 -36 -23 0
-13 48 46 0
-9 34 15 0
14 38 -31 0
17 -17 -1 0
-16 35 -23 0
29 -2 28 0
-17 -1 -41 0
-46 -23 50 0
-4 45 20 0
38 -5 -8 0
44 17 -26 0
34 7 21 0
25 -11 4 0
3 27 -32 0
50 -50 -18 0
-29 -15 30 0
39 -40 14 0
-17 47 23 0
-4 -44 47 0
-18 -37 -10 0
46 -43 27 0
12 -1 17 0
42 -28 -25 0
6 41 16 0
-12 -11 43 0
-16 -22 3 0
42 23 27 0
